max_width = 36;
n_blocks = 23;
width = [12, 3, 3, 4, 3, 5, 3, 5, 3, 3, 4, 3, 3, 3, 3, 3, 3, 3, 5, 3, 5, 4, 3];
height = [36, 36, 24, 22, 16, 15, 15, 14, 14, 12, 11, 11, 10, 9, 8, 7, 6, 5, 4, 4, 3, 3, 3];
